p wcnf 141 212 213 
1 -28 -110 0 
1 105 -106 0 
1 82 -71 0 
1 78 -111 0 
1 4 -42 0 
1 6 -45 0 
1 -14 30 0 
1 -28 -80 0 
1 -2 20 0 
1 -96 -87 0 
1 -46 -54 0 
1 -44 -24 0 
1 51 -21 0 
1 21 -63 0 
1 -5 124 0 
1 -24 72 0 
1 122 29 0 
1 2 -20 0 
1 110 -117 0 
1 79 -55 0 
1 76 7 0 
1 40 139 0 
1 51 -140 0 
1 -16 67 0 
1 -55 -127 0 
1 112 84 0 
1 -141 91 0 
1 -127 6 0 
1 -32 110 0 
1 72 43 0 
1 139 118 0 
1 -46 -84 0 
1 40 -128 0 
1 -93 9 0 
1 77 -131 0 
1 88 -31 0 
1 -18 -74 0 
1 -90 -134 0 
1 -105 -3 0 
1 44 -75 0 
1 -121 138 0 
1 -28 -127 0 
1 -124 64 0 
1 -41 -95 0 
1 96 -49 0 
1 138 -73 0 
1 -57 -99 0 
1 -32 -46 0 
1 24 -131 0 
1 114 -87 0 
1 93 -119 0 
1 -32 -122 0 
1 -88 -13 0 
1 -80 126 0 
1 120 -88 0 
1 72 -16 0 
1 79 67 0 
1 -44 -14 0 
1 -86 -95 0 
1 -98 58 0 
1 87 -107 0 
1 26 -18 0 
1 -83 25 0 
1 65 109 0 
1 -52 -112 0 
1 -120 -122 0 
1 -5 -53 0 
1 90 -34 0 
1 29 -108 0 
1 -75 104 0 
1 -62 65 0 
1 76 113 0 
1 -46 103 0 
1 24 -93 0 
1 36 14 0 
1 95 135 0 
1 33 71 0 
1 -9 65 0 
1 -113 83 0 
1 141 25 0 
1 62 -87 0 
1 -115 -27 0 
1 75 -124 0 
1 44 -5 0 
1 -114 -140 0 
1 -29 -60 0 
1 78 85 0 
1 -114 -56 0 
1 61 -136 0 
1 25 -14 0 
1 -36 -66 0 
1 50 44 0 
1 -61 49 0 
1 122 86 0 
1 132 123 0 
1 -54 38 0 
1 -137 127 0 
1 109 -46 0 
1 -92 90 0 
1 30 56 0 
1 9 -32 0 
1 -77 -11 0 
1 72 -69 0 
1 40 -110 0 
1 -16 118 0 
1 -89 137 0 
1 72 -63 0 
1 -56 -89 0 
1 -27 15 0 
1 2 132 0 
1 -125 -108 0 
1 92 58 0 
1 -23 40 0 
1 -64 111 0 
1 91 -11 0 
1 -120 -62 0 
1 -94 91 0 
1 -134 61 0 
1 -133 -84 0 
1 132 127 0 
1 8 9 0 
1 5 -98 0 
1 137 -108 0 
1 -77 -112 0 
1 5 -4 0 
1 -4 -13 0 
1 110 -48 0 
1 -100 109 0 
1 43 -62 0 
1 125 -70 0 
1 -124 103 0 
1 127 2 0 
1 26 -55 0 
1 -25 -15 0 
1 -3 6 0 
1 88 83 0 
1 -119 63 0 
1 -86 -57 0 
1 -123 81 0 
1 -11 85 0 
1 28 -126 0 
1 17 81 0 
1 46 -79 0 
1 -74 -6 0 
1 85 127 0 
1 130 -103 0 
1 -125 -132 0 
1 16 -47 0 
1 86 62 0 
1 86 41 0 
1 23 -76 0 
1 -134 121 0 
1 -94 -117 0 
1 134 130 0 
1 34 -109 0 
1 4 -79 0 
1 -74 -133 0 
1 -2 -113 0 
1 -69 42 0 
1 91 -55 0 
1 61 1 0 
1 -132 131 0 
1 -26 -67 0 
1 77 -73 0 
1 -92 103 0 
1 -74 12 0 
1 -86 12 0 
1 40 32 0 
1 -65 128 0 
1 -33 -51 0 
1 -50 -19 0 
1 91 -132 0 
1 44 80 0 
1 78 -64 0 
1 -93 -74 0 
1 -16 75 0 
1 -85 135 0 
1 -82 46 0 
1 120 -18 0 
1 -12 50 0 
1 132 -100 0 
1 15 112 0 
1 77 119 0 
1 -41 11 0 
1 -28 -101 0 
1 -109 -135 0 
1 88 43 0 
1 -124 60 0 
1 -126 30 0 
1 -31 -137 0 
1 -47 -64 0 
1 3 -63 0 
1 -48 -69 0 
1 -76 -37 0 
1 16 -110 0 
1 -80 109 0 
1 81 -7 0 
1 -109 -92 0 
1 97 110 0 
1 -66 -128 0 
1 63 -40 0 
1 -53 -110 0 
1 -105 -129 0 
1 -46 115 0 
1 -6 -74 0 
1 -53 90 0 
1 -45 11 0 
1 -105 -5 0 
1 43 -60 0 
1 141 -122 0 
1 85 40 0 
1 103 -38 0 
